Problem:    rollos
Rows:       55
Columns:    250 (250 integer, 50 binary)
Non-zeros:  500
Status:     INTEGER OPTIMAL
Objective:  Z = 28 (MINimum)

   No.   Row name        Activity     Lower bound   Upper bound
------ ------------    ------------- ------------- -------------
     1 Z                          28                             
     2 tamaMaxRollo[1]
                                   0                          -0 
     3 tamaMaxRollo[2]
                                 -10                          -0 
     4 tamaMaxRollo[3]
                                   0                          -0 
     5 tamaMaxRollo[4]
                                   0                          -0 
     6 tamaMaxRollo[5]
                                   0                          -0 
     7 tamaMaxRollo[6]
                                   0                          -0 
     8 tamaMaxRollo[7]
                                   0                          -0 
     9 tamaMaxRollo[8]
                                   0                          -0 
    10 tamaMaxRollo[9]
                                   0                          -0 
    11 tamaMaxRollo[10]
                                   0                          -0 
    12 tamaMaxRollo[11]
                                   0                          -0 
    13 tamaMaxRollo[12]
                                   0                          -0 
    14 tamaMaxRollo[13]
                                   0                          -0 
    15 tamaMaxRollo[14]
                                   0                          -0 
    16 tamaMaxRollo[15]
                                   0                          -0 
    17 tamaMaxRollo[16]
                                   0                          -0 
    18 tamaMaxRollo[17]
                                   0                          -0 
    19 tamaMaxRollo[18]
                                   0                          -0 
    20 tamaMaxRollo[19]
                                   0                          -0 
    21 tamaMaxRollo[20]
                                 -10                          -0 
    22 tamaMaxRollo[21]
                                 -50                          -0 
    23 tamaMaxRollo[22]
                                   0                          -0 
    24 tamaMaxRollo[23]
                                 -30                          -0 
    25 tamaMaxRollo[24]
                                   0                          -0 
    26 tamaMaxRollo[25]
                                 -10                          -0 
    27 tamaMaxRollo[26]
                                 -10                          -0 
    28 tamaMaxRollo[27]
                                 -30                          -0 
    29 tamaMaxRollo[28]
                                 -10                          -0 
    30 tamaMaxRollo[29]
                                   0                          -0 
    31 tamaMaxRollo[30]
                                 -10                          -0 
    32 tamaMaxRollo[31]
                                 -10                          -0 
    33 tamaMaxRollo[32]
                                   0                          -0 
    34 tamaMaxRollo[33]
                                 -10                          -0 
    35 tamaMaxRollo[34]
                                   0                          -0 
    36 tamaMaxRollo[35]
                                 -10                          -0 
    37 tamaMaxRollo[36]
                                   0                          -0 
    38 tamaMaxRollo[37]
                                 -10                          -0 
    39 tamaMaxRollo[38]
                                 -10                          -0 
    40 tamaMaxRollo[39]
                                   0                          -0 
    41 tamaMaxRollo[40]
                                   0                          -0 
    42 tamaMaxRollo[41]
                                   0                          -0 
    43 tamaMaxRollo[42]
                                   0                          -0 
    44 tamaMaxRollo[43]
                                 -10                          -0 
    45 tamaMaxRollo[44]
                                 -10                          -0 
    46 tamaMaxRollo[45]
                                   0                          -0 
    47 tamaMaxRollo[46]
                                   0                          -0 
    48 tamaMaxRollo[47]
                                   0                          -0 
    49 tamaMaxRollo[48]
                                 -10                          -0 
    50 tamaMaxRollo[49]
                                 -10                          -0 
    51 tamaMaxRollo[50]
                                 -30                          -0 
    52 suplirDemanda[1]
                                  15            10               
    53 suplirDemanda[2]
                                  15            15               
    54 suplirDemanda[3]
                                  18            18               
    55 suplirDemanda[4]
                                   2             2               

   No. Column name       Activity     Lower bound   Upper bound
------ ------------    ------------- ------------- -------------
     1 X[1,1]       *              0             0               
     2 X[1,2]       *              0             0               
     3 X[1,3]       *              0             0               
     4 X[1,4]       *              1             0               
     5 X[2,1]       *              1             0               
     6 X[2,2]       *              0             0               
     7 X[2,3]       *              1             0               
     8 X[2,4]       *              0             0               
     9 X[3,1]       *              0             0               
    10 X[3,2]       *              0             0               
    11 X[3,3]       *              0             0               
    12 X[3,4]       *              0             0               
    13 X[4,1]       *              0             0               
    14 X[4,2]       *              0             0               
    15 X[4,3]       *              0             0               
    16 X[4,4]       *              0             0               
    17 X[5,1]       *              0             0               
    18 X[5,2]       *              0             0               
    19 X[5,3]       *              0             0               
    20 X[5,4]       *              0             0               
    21 X[6,1]       *              0             0               
    22 X[6,2]       *              0             0               
    23 X[6,3]       *              0             0               
    24 X[6,4]       *              0             0               
    25 X[7,1]       *              0             0               
    26 X[7,2]       *              0             0               
    27 X[7,3]       *              0             0               
    28 X[7,4]       *              0             0               
    29 X[8,1]       *              0             0               
    30 X[8,2]       *              0             0               
    31 X[8,3]       *              0             0               
    32 X[8,4]       *              0             0               
    33 X[9,1]       *              0             0               
    34 X[9,2]       *              0             0               
    35 X[9,3]       *              0             0               
    36 X[9,4]       *              0             0               
    37 X[10,1]      *              0             0               
    38 X[10,2]      *              0             0               
    39 X[10,3]      *              0             0               
    40 X[10,4]      *              0             0               
    41 X[11,1]      *              0             0               
    42 X[11,2]      *              0             0               
    43 X[11,3]      *              0             0               
    44 X[11,4]      *              0             0               
    45 X[12,1]      *              0             0               
    46 X[12,2]      *              0             0               
    47 X[12,3]      *              0             0               
    48 X[12,4]      *              0             0               
    49 X[13,1]      *              0             0               
    50 X[13,2]      *              0             0               
    51 X[13,3]      *              0             0               
    52 X[13,4]      *              0             0               
    53 X[14,1]      *              0             0               
    54 X[14,2]      *              0             0               
    55 X[14,3]      *              0             0               
    56 X[14,4]      *              0             0               
    57 X[15,1]      *              0             0               
    58 X[15,2]      *              0             0               
    59 X[15,3]      *              0             0               
    60 X[15,4]      *              0             0               
    61 X[16,1]      *              0             0               
    62 X[16,2]      *              0             0               
    63 X[16,3]      *              0             0               
    64 X[16,4]      *              0             0               
    65 X[17,1]      *              0             0               
    66 X[17,2]      *              0             0               
    67 X[17,3]      *              0             0               
    68 X[17,4]      *              0             0               
    69 X[18,1]      *              0             0               
    70 X[18,2]      *              0             0               
    71 X[18,3]      *              0             0               
    72 X[18,4]      *              0             0               
    73 X[19,1]      *              0             0               
    74 X[19,2]      *              0             0               
    75 X[19,3]      *              0             0               
    76 X[19,4]      *              0             0               
    77 X[20,1]      *              1             0               
    78 X[20,2]      *              0             0               
    79 X[20,3]      *              1             0               
    80 X[20,4]      *              0             0               
    81 X[21,1]      *              0             0               
    82 X[21,2]      *              1             0               
    83 X[21,3]      *              0             0               
    84 X[21,4]      *              0             0               
    85 X[22,1]      *              0             0               
    86 X[22,2]      *              0             0               
    87 X[22,3]      *              0             0               
    88 X[22,4]      *              0             0               
    89 X[23,1]      *              0             0               
    90 X[23,2]      *              0             0               
    91 X[23,3]      *              1             0               
    92 X[23,4]      *              0             0               
    93 X[24,1]      *              0             0               
    94 X[24,2]      *              2             0               
    95 X[24,3]      *              0             0               
    96 X[24,4]      *              0             0               
    97 X[25,1]      *              1             0               
    98 X[25,2]      *              0             0               
    99 X[25,3]      *              1             0               
   100 X[25,4]      *              0             0               
   101 X[26,1]      *              1             0               
   102 X[26,2]      *              0             0               
   103 X[26,3]      *              1             0               
   104 X[26,4]      *              0             0               
   105 X[27,1]      *              0             0               
   106 X[27,2]      *              0             0               
   107 X[27,3]      *              1             0               
   108 X[27,4]      *              0             0               
   109 X[28,1]      *              1             0               
   110 X[28,2]      *              0             0               
   111 X[28,3]      *              1             0               
   112 X[28,4]      *              0             0               
   113 X[29,1]      *              0             0               
   114 X[29,2]      *              2             0               
   115 X[29,3]      *              0             0               
   116 X[29,4]      *              0             0               
   117 X[30,1]      *              1             0               
   118 X[30,2]      *              0             0               
   119 X[30,3]      *              1             0               
   120 X[30,4]      *              0             0               
   121 X[31,1]      *              1             0               
   122 X[31,2]      *              0             0               
   123 X[31,3]      *              1             0               
   124 X[31,4]      *              0             0               
   125 X[32,1]      *              0             0               
   126 X[32,2]      *              2             0               
   127 X[32,3]      *              0             0               
   128 X[32,4]      *              0             0               
   129 X[33,1]      *              1             0               
   130 X[33,2]      *              0             0               
   131 X[33,3]      *              1             0               
   132 X[33,4]      *              0             0               
   133 X[34,1]      *              0             0               
   134 X[34,2]      *              2             0               
   135 X[34,3]      *              0             0               
   136 X[34,4]      *              0             0               
   137 X[35,1]      *              1             0               
   138 X[35,2]      *              0             0               
   139 X[35,3]      *              1             0               
   140 X[35,4]      *              0             0               
   141 X[36,1]      *              0             0               
   142 X[36,2]      *              2             0               
   143 X[36,3]      *              0             0               
   144 X[36,4]      *              0             0               
   145 X[37,1]      *              1             0               
   146 X[37,2]      *              0             0               
   147 X[37,3]      *              1             0               
   148 X[37,4]      *              0             0               
   149 X[38,1]      *              1             0               
   150 X[38,2]      *              0             0               
   151 X[38,3]      *              1             0               
   152 X[38,4]      *              0             0               
   153 X[39,1]      *              0             0               
   154 X[39,2]      *              0             0               
   155 X[39,3]      *              0             0               
   156 X[39,4]      *              0             0               
   157 X[40,1]      *              0             0               
   158 X[40,2]      *              0             0               
   159 X[40,3]      *              0             0               
   160 X[40,4]      *              0             0               
   161 X[41,1]      *              0             0               
   162 X[41,2]      *              0             0               
   163 X[41,3]      *              0             0               
   164 X[41,4]      *              0             0               
   165 X[42,1]      *              0             0               
   166 X[42,2]      *              2             0               
   167 X[42,3]      *              0             0               
   168 X[42,4]      *              0             0               
   169 X[43,1]      *              1             0               
   170 X[43,2]      *              0             0               
   171 X[43,3]      *              1             0               
   172 X[43,4]      *              0             0               
   173 X[44,1]      *              1             0               
   174 X[44,2]      *              0             0               
   175 X[44,3]      *              1             0               
   176 X[44,4]      *              0             0               
   177 X[45,1]      *              0             0               
   178 X[45,2]      *              0             0               
   179 X[45,3]      *              0             0               
   180 X[45,4]      *              0             0               
   181 X[46,1]      *              0             0               
   182 X[46,2]      *              2             0               
   183 X[46,3]      *              0             0               
   184 X[46,4]      *              0             0               
   185 X[47,1]      *              0             0               
   186 X[47,2]      *              0             0               
   187 X[47,3]      *              0             0               
   188 X[47,4]      *              1             0               
   189 X[48,1]      *              1             0               
   190 X[48,2]      *              0             0               
   191 X[48,3]      *              1             0               
   192 X[48,4]      *              0             0               
   193 X[49,1]      *              1             0               
   194 X[49,2]      *              0             0               
   195 X[49,3]      *              1             0               
   196 X[49,4]      *              0             0               
   197 X[50,1]      *              0             0               
   198 X[50,2]      *              0             0               
   199 X[50,3]      *              1             0               
   200 X[50,4]      *              0             0               
   201 Y[1]         *              1             0             1 
   202 Y[2]         *              1             0             1 
   203 Y[3]         *              0             0             1 
   204 Y[4]         *              0             0             1 
   205 Y[5]         *              0             0             1 
   206 Y[6]         *              0             0             1 
   207 Y[7]         *              0             0             1 
   208 Y[8]         *              0             0             1 
   209 Y[9]         *              0             0             1 
   210 Y[10]        *              0             0             1 
   211 Y[11]        *              0             0             1 
   212 Y[12]        *              0             0             1 
   213 Y[13]        *              0             0             1 
   214 Y[14]        *              0             0             1 
   215 Y[15]        *              0             0             1 
   216 Y[16]        *              0             0             1 
   217 Y[17]        *              0             0             1 
   218 Y[18]        *              0             0             1 
   219 Y[19]        *              0             0             1 
   220 Y[20]        *              1             0             1 
   221 Y[21]        *              1             0             1 
   222 Y[22]        *              0             0             1 
   223 Y[23]        *              1             0             1 
   224 Y[24]        *              1             0             1 
   225 Y[25]        *              1             0             1 
   226 Y[26]        *              1             0             1 
   227 Y[27]        *              1             0             1 
   228 Y[28]        *              1             0             1 
   229 Y[29]        *              1             0             1 
   230 Y[30]        *              1             0             1 
   231 Y[31]        *              1             0             1 
   232 Y[32]        *              1             0             1 
   233 Y[33]        *              1             0             1 
   234 Y[34]        *              1             0             1 
   235 Y[35]        *              1             0             1 
   236 Y[36]        *              1             0             1 
   237 Y[37]        *              1             0             1 
   238 Y[38]        *              1             0             1 
   239 Y[39]        *              0             0             1 
   240 Y[40]        *              0             0             1 
   241 Y[41]        *              0             0             1 
   242 Y[42]        *              1             0             1 
   243 Y[43]        *              1             0             1 
   244 Y[44]        *              1             0             1 
   245 Y[45]        *              0             0             1 
   246 Y[46]        *              1             0             1 
   247 Y[47]        *              1             0             1 
   248 Y[48]        *              1             0             1 
   249 Y[49]        *              1             0             1 
   250 Y[50]        *              1             0             1 

Integer feasibility conditions:

KKT.PE: max.abs.err = 0.00e+00 on row 0
        max.rel.err = 0.00e+00 on row 0
        High quality

KKT.PB: max.abs.err = 0.00e+00 on row 0
        max.rel.err = 0.00e+00 on row 0
        High quality

End of output
